NAME : rc_202.4.7930296.tour
COMMENT : Length = 7930296
COMMENT : Found by LKH [Keld Helsgaun] Tue May  2 05:21:40 2017
TYPE : TOUR
DIMENSION : 28
TOUR_SECTION
1
25
22
9
6
5
27
15
8
14
23
20
17
19
10
24
21
3
12
18
26
4
11
7
2
13
28
16
-1
EOF
